solution status: optimal solution found
objective value:                                    0
shell_i_$_135__3                                    1 	(obj:0)
shell_i_thingy.thingy.chamber[3].first.ring                    1 	(obj:0)
shell_i_thingy.thingy.chamber[2].first.ring                    1 	(obj:0)
shell_i_thingy.thingy.prep.vout3                    1 	(obj:0)
shell_i_$_44__3                                     1 	(obj:0)
shell_j_$_134__3                                    1 	(obj:0)
shell_i_thingy.flush_pump_pinholes[0].hole                    1 	(obj:0)
shell_i_$_25__3                                     1 	(obj:0)
shell_i_thingy.flush_sieve_hole                     1 	(obj:0)
shell_j_thingy.thingy.chamber[0].first.vring_out                    1 	(obj:0)
shell_i_$_168__3                                    1 	(obj:0)
shell_j_thingy.flush_v1_hole                        1 	(obj:0)
shell_i_$_152__3                                    1 	(obj:0)
shell_i_$_154__3                                    1 	(obj:0)
shell_j_$_26__3                                     1 	(obj:0)
shell_j_thingy.pump_pinholes[0].hole                    1 	(obj:0)
shell_j_thingy.flush_pump_pinholes[1].hole                    1 	(obj:0)
shell_i_thingy.thingy.chamber[1].first.vring_in                    1 	(obj:0)
shell_i_$_163__3                                    1 	(obj:0)
shell_j_$_48__3                                     1 	(obj:0)
shell_i_$_138__3                                    1 	(obj:0)
shell_j_$_40__3                                     1 	(obj:0)
shell_i_$_139__3                                    1 	(obj:0)
shell_i_$_59__3                                     1 	(obj:0)
shell_i_thingy.pump_pinholes[2].hole                    1 	(obj:0)
shell_i_thingy.thingy.prep.ring                     1 	(obj:0)
shell_j_$_62__3                                     1 	(obj:0)
shell_j_thingy.flush_prep_inlet_hole                    1 	(obj:0)
shell_i_$_176__3                                    1 	(obj:0)
shell_i_$_165__3                                    1 	(obj:0)
shell_i_$_45__3                                     1 	(obj:0)
shell_i_thingy.ctrl_v2_hole                         1 	(obj:0)
shell_i_thingy.thingy.chamber[3].first.vring_in                    1 	(obj:0)
shell_i_thingy.ctrl_v1_hole                         1 	(obj:0)
shell_i_$_151__3                                    1 	(obj:0)
shell_j_$_23__3                                     1 	(obj:0)
shell_i_thingy.thingy.chamber[1].first.ring                    1 	(obj:0)
shell_i_thingy.flush_v2_hole                        1 	(obj:0)
shell_i_$_35__3                                     1 	(obj:0)
shell_i_thingy.thingy.chamber[2].first.vring_in                    1 	(obj:0)
shell_i_$_172__3                                    1 	(obj:0)
shell_i_$_130__3                                    1 	(obj:0)
shell_j_$_61__3                                     1 	(obj:0)
shell_j_thingy.thingy.chamber[3].first.vring_out                    1 	(obj:0)
shell_i_$_171__3                                    1 	(obj:0)
shell_j_$_156__3                                    1 	(obj:0)
shell_j_$_24__3                                     1 	(obj:0)
shell_j_$_47__3                                     1 	(obj:0)
shell_i_thingy.ctrl_sieve_hole                      1 	(obj:0)
shell_j_$_22__3                                     1 	(obj:0)
shell_i_thingy.flush_sv1_hole                       1 	(obj:0)
shell_i_thingy.thingy.chamber[0].first.vring_in                    1 	(obj:0)
shell_i_$_149__3                                    1 	(obj:0)
shell_i_$_155__3                                    1 	(obj:0)
shell_i_thingy.pump_pinholes[1].hole                    1 	(obj:0)
shell_i_$_147__3                                    1 	(obj:0)
shell_j_$_167__3                                    1 	(obj:0)
shell_i_$_37__3                                     1 	(obj:0)
shell_i_$_46__3                                     1 	(obj:0)
shell_i_$_56__3                                     1 	(obj:0)
shell_j_thingy.thingy.chamber[2].first.vring_out                    1 	(obj:0)
shell_j_thingy.ctrl_sv1_hole                        1 	(obj:0)
shell_j_$_144__3                                    1 	(obj:0)
shell_j_$_36__3                                     1 	(obj:0)
shell_j_thingy.ctrl_prep_inlet_hole                    1 	(obj:0)
shell_i_$_137__3                                    1 	(obj:0)
shell_j_$_57__3                                     1 	(obj:0)
shell_i_$_34__3                                     1 	(obj:0)
shell_j_thingy.flush_pump_pinholes[2].hole                    1 	(obj:0)
shell_i_$_39__3                                     1 	(obj:0)
shell_j_thingy.thingy.chamber[0].first.ring                    1 	(obj:0)
shell_j_$_58__3                                     1 	(obj:0)
shell_j_thingy.thingy.chamber[1].first.vring_out                    1 	(obj:0)
shell_j_$_132__3                                    1 	(obj:0)
shell_j_$_170__3                                    1 	(obj:0)
shell_j_$_160__3                                    1 	(obj:0)
$_45__3_z                                          23 	(obj:0)
$_152__3_x                                         -5 	(obj:0)
$_152__3_y                                          3 	(obj:0)
thingy.ctrl_v2_hole_x                              -5 	(obj:0)
thingy.ctrl_v2_hole_y                              -5 	(obj:0)
thingy.ctrl_v2_hole_z                              11 	(obj:0)
$_152__3_z                                         -7 	(obj:0)
$_135__3_x                                         -5 	(obj:0)
thingy.thingy.chamber[3].first.vring_in_x                   -5 	(obj:0)
thingy.thingy.chamber[3].first.vring_in_y                   -5 	(obj:0)
thingy.thingy.chamber[3].first.vring_in_z                    1 	(obj:0)
$_134__3_x                                          3 	(obj:0)
$_154__3_x                                         -5 	(obj:0)
thingy.ctrl_v1_hole_x                              -5 	(obj:0)
thingy.ctrl_v1_hole_y                              -5 	(obj:0)
thingy.ctrl_v1_hole_z                              13 	(obj:0)
$_154__3_y                                         -3 	(obj:0)
$_154__3_z                                         -2 	(obj:0)
$_151__3_x                                         -5 	(obj:0)
$_151__3_y                                          3 	(obj:0)
$_151__3_z                                         -9 	(obj:0)
$_134__3_y                                         -5 	(obj:0)
$_134__3_z                                         -1 	(obj:0)
$_23__3_x                                           3 	(obj:0)
$_23__3_y                                          -5 	(obj:0)
$_23__3_z                                          23 	(obj:0)
$_26__3_y                                          -5 	(obj:0)
thingy.thingy.chamber[1].first.ring_x                   -5 	(obj:0)
thingy.thingy.chamber[1].first.ring_y                   -3 	(obj:0)
thingy.thingy.chamber[1].first.ring_z                   -3 	(obj:0)
$_26__3_z                                          15 	(obj:0)
thingy.thingy.chamber[2].first.ring_x                   -5 	(obj:0)
thingy.flush_v2_hole_x                             -5 	(obj:0)
thingy.flush_v2_hole_y                             -5 	(obj:0)
thingy.flush_v2_hole_z                             10 	(obj:0)
thingy.thingy.chamber[2].first.ring_y                   -1 	(obj:0)
thingy.pump_pinholes[0].hole_x                     -4 	(obj:0)
$_35__3_x                                          -5 	(obj:0)
$_35__3_y                                          -4 	(obj:0)
$_35__3_z                                          -5 	(obj:0)
thingy.pump_pinholes[0].hole_y                     -5 	(obj:0)
thingy.pump_pinholes[0].hole_z                     -3 	(obj:0)
thingy.thingy.chamber[2].first.vring_in_x                   -5 	(obj:0)
thingy.thingy.chamber[2].first.vring_in_y                   -3 	(obj:0)
thingy.thingy.chamber[2].first.vring_in_z                    1 	(obj:0)
thingy.flush_pump_pinholes[0].hole_x                   -5 	(obj:0)
thingy.flush_pump_pinholes[0].hole_y                   -5 	(obj:0)
$_172__3_x                                         -5 	(obj:0)
$_172__3_y                                         -4 	(obj:0)
$_172__3_z                                         -3 	(obj:0)
thingy.flush_pump_pinholes[1].hole_x                   -4 	(obj:0)
thingy.flush_pump_pinholes[1].hole_y                   -5 	(obj:0)
$_130__3_x                                         -5 	(obj:0)
$_130__3_y                                         -1 	(obj:0)
$_130__3_z                                          3 	(obj:0)
thingy.flush_pump_pinholes[1].hole_z                    3 	(obj:0)
thingy.flush_pump_pinholes[0].hole_z                   -2 	(obj:0)
$_61__3_x                                           3 	(obj:0)
$_61__3_y                                          -5 	(obj:0)
$_61__3_z                                          17 	(obj:0)
thingy.thingy.chamber[2].first.ring_z                   -3 	(obj:0)
thingy.thingy.chamber[1].first.vring_in_x                   -5 	(obj:0)
thingy.thingy.chamber[3].first.vring_out_x                   -2 	(obj:0)
thingy.thingy.chamber[3].first.vring_out_y                   -5 	(obj:0)
thingy.thingy.chamber[3].first.vring_out_z                   -3 	(obj:0)
thingy.thingy.chamber[1].first.vring_in_y                   -2 	(obj:0)
thingy.thingy.chamber[1].first.vring_in_z                    1 	(obj:0)
$_171__3_x                                         -5 	(obj:0)
$_171__3_y                                         -5 	(obj:0)
$_171__3_z                                         -1 	(obj:0)
$_25__3_x                                          -5 	(obj:0)
$_156__3_x                                         -4 	(obj:0)
$_156__3_y                                         -5 	(obj:0)
$_156__3_z                                         -2 	(obj:0)
$_163__3_x                                         -5 	(obj:0)
$_163__3_y                                         -4 	(obj:0)
$_24__3_x                                           1 	(obj:0)
$_24__3_y                                          -5 	(obj:0)
$_24__3_z                                          23 	(obj:0)
$_163__3_z                                          3 	(obj:0)
$_25__3_y                                          -4 	(obj:0)
$_47__3_x                                           3 	(obj:0)
$_47__3_y                                          -5 	(obj:0)
$_47__3_z                                          15 	(obj:0)
$_25__3_z                                           7 	(obj:0)
$_48__3_x                                           1 	(obj:0)
thingy.ctrl_sieve_hole_x                           -5 	(obj:0)
thingy.ctrl_sieve_hole_y                           -5 	(obj:0)
thingy.ctrl_sieve_hole_z                           -4 	(obj:0)
$_48__3_y                                          -5 	(obj:0)
$_48__3_z                                           7 	(obj:0)
$_22__3_x                                          -1 	(obj:0)
$_22__3_y                                          -5 	(obj:0)
$_22__3_z                                          23 	(obj:0)
thingy.thingy.chamber[3].first.ring_x                   -5 	(obj:0)
thingy.thingy.prep.vout3_x                         -5 	(obj:0)
thingy.flush_sv1_hole_x                            -5 	(obj:0)
thingy.flush_sv1_hole_y                            -5 	(obj:0)
thingy.flush_sv1_hole_z                             7 	(obj:0)
$_138__3_x                                         -5 	(obj:0)
$_138__3_y                                         -2 	(obj:0)
thingy.thingy.chamber[0].first.vring_in_x                   -5 	(obj:0)
thingy.thingy.chamber[0].first.vring_in_y                   -4 	(obj:0)
thingy.thingy.chamber[0].first.vring_in_z                    1 	(obj:0)
$_138__3_z                                         -1 	(obj:0)
thingy.flush_sieve_hole_x                          -5 	(obj:0)
$_149__3_x                                         -5 	(obj:0)
$_149__3_y                                          3 	(obj:0)
$_149__3_z                                         -4 	(obj:0)
thingy.flush_sieve_hole_y                          -5 	(obj:0)
$_40__3_x                                          -1 	(obj:0)
$_155__3_x                                         -5 	(obj:0)
$_155__3_y                                         -5 	(obj:0)
$_155__3_z                                         -5 	(obj:0)
$_40__3_y                                          -5 	(obj:0)
$_40__3_z                                          13 	(obj:0)
thingy.pump_pinholes[1].hole_x                     -5 	(obj:0)
thingy.pump_pinholes[1].hole_y                     -5 	(obj:0)
thingy.pump_pinholes[1].hole_z                      3 	(obj:0)
thingy.flush_sieve_hole_z                          -7 	(obj:0)
thingy.thingy.prep.vout3_y                         -5 	(obj:0)
$_147__3_x                                         -5 	(obj:0)
$_147__3_y                                          3 	(obj:0)
$_147__3_z                                         -5 	(obj:0)
$_139__3_x                                         -5 	(obj:0)
$_139__3_y                                         -1 	(obj:0)
$_167__3_x                                         -2 	(obj:0)
$_167__3_y                                         -5 	(obj:0)
$_167__3_z                                         -1 	(obj:0)
$_139__3_z                                         -2 	(obj:0)
thingy.thingy.prep.vout3_z                          5 	(obj:0)
$_37__3_x                                          -5 	(obj:0)
$_37__3_y                                           3 	(obj:0)
$_37__3_z                                           5 	(obj:0)
thingy.thingy.chamber[0].first.vring_out_x                   -3 	(obj:0)
$_59__3_x                                          -5 	(obj:0)
$_46__3_x                                          -5 	(obj:0)
$_46__3_y                                          -5 	(obj:0)
$_46__3_z                                          23 	(obj:0)
$_59__3_y                                          -5 	(obj:0)
$_59__3_z                                           4 	(obj:0)
$_56__3_x                                          -5 	(obj:0)
$_56__3_y                                          -4 	(obj:0)
$_56__3_z                                          -7 	(obj:0)
thingy.thingy.chamber[0].first.vring_out_y                   -5 	(obj:0)
thingy.thingy.chamber[0].first.vring_out_z                   -3 	(obj:0)
thingy.thingy.chamber[2].first.vring_out_x                   -3 	(obj:0)
thingy.thingy.chamber[2].first.vring_out_y                   -5 	(obj:0)
thingy.thingy.chamber[2].first.vring_out_z                   -5 	(obj:0)
thingy.pump_pinholes[2].hole_x                     -5 	(obj:0)
thingy.pump_pinholes[2].hole_y                     -2 	(obj:0)
thingy.ctrl_sv1_hole_x                             -5 	(obj:0)
thingy.ctrl_sv1_hole_y                             -5 	(obj:0)
thingy.ctrl_sv1_hole_z                              8 	(obj:0)
thingy.pump_pinholes[2].hole_z                     -2 	(obj:0)
thingy.thingy.chamber[3].first.ring_y                   -4 	(obj:0)
$_144__3_x                                         -2 	(obj:0)
$_144__3_y                                         -5 	(obj:0)
$_144__3_z                                         -4 	(obj:0)
thingy.thingy.chamber[3].first.ring_z                   -2 	(obj:0)
thingy.thingy.prep.ring_x                          -5 	(obj:0)
$_36__3_x                                          -5 	(obj:0)
$_36__3_y                                          -5 	(obj:0)
$_36__3_z                                           2 	(obj:0)
thingy.thingy.prep.ring_y                          -4 	(obj:0)
thingy.thingy.prep.ring_z                           9 	(obj:0)
thingy.ctrl_prep_inlet_hole_x                      -5 	(obj:0)
thingy.ctrl_prep_inlet_hole_y                      -5 	(obj:0)
thingy.ctrl_prep_inlet_hole_z                      15 	(obj:0)
$_168__3_x                                         -5 	(obj:0)
$_168__3_y                                         -1 	(obj:0)
$_137__3_x                                         -5 	(obj:0)
$_137__3_y                                         -2 	(obj:0)
$_137__3_z                                         -3 	(obj:0)
$_62__3_x                                           3 	(obj:0)
$_62__3_y                                          -5 	(obj:0)
$_57__3_x                                          -3 	(obj:0)
$_57__3_y                                          -5 	(obj:0)
$_57__3_z                                          -4 	(obj:0)
$_62__3_z                                          13 	(obj:0)
$_168__3_z                                          1 	(obj:0)
$_34__3_x                                          -5 	(obj:0)
$_34__3_y                                          -1 	(obj:0)
$_34__3_z                                          -4 	(obj:0)
$_44__3_x                                          -5 	(obj:0)
thingy.flush_prep_inlet_hole_x                     -4 	(obj:0)
thingy.flush_pump_pinholes[2].hole_x                   -5 	(obj:0)
thingy.flush_pump_pinholes[2].hole_y                   -5 	(obj:0)
thingy.flush_prep_inlet_hole_y                     -5 	(obj:0)
thingy.flush_prep_inlet_hole_z                     15 	(obj:0)
$_39__3_x                                          -5 	(obj:0)
$_39__3_y                                           3 	(obj:0)
$_39__3_z                                          17 	(obj:0)
$_44__3_y                                          -1 	(obj:0)
thingy.flush_v1_hole_x                             -5 	(obj:0)
thingy.thingy.chamber[0].first.ring_x                   -1 	(obj:0)
thingy.thingy.chamber[0].first.ring_y                   -5 	(obj:0)
thingy.thingy.chamber[0].first.ring_z                   -3 	(obj:0)
$_176__3_x                                         -5 	(obj:0)
$_176__3_y                                         -1 	(obj:0)
$_58__3_x                                           3 	(obj:0)
$_58__3_y                                          -5 	(obj:0)
$_58__3_z                                           5 	(obj:0)
$_176__3_z                                         -7 	(obj:0)
thingy.flush_v1_hole_y                             -5 	(obj:0)
thingy.thingy.chamber[1].first.vring_out_x                   -1 	(obj:0)
thingy.thingy.chamber[1].first.vring_out_y                   -5 	(obj:0)
thingy.thingy.chamber[1].first.vring_out_z                   -2 	(obj:0)
thingy.flush_v1_hole_z                              9 	(obj:0)
$_165__3_x                                         -5 	(obj:0)
$_132__3_x                                         -1 	(obj:0)
$_132__3_y                                         -5 	(obj:0)
$_132__3_z                                          2 	(obj:0)
$_165__3_y                                          3 	(obj:0)
$_165__3_z                                          1 	(obj:0)
$_170__3_x                                         -5 	(obj:0)
$_170__3_y                                         -5 	(obj:0)
$_170__3_z                                         -3 	(obj:0)
$_44__3_z                                          23 	(obj:0)
$_135__3_z                                         -5 	(obj:0)
$_160__3_x                                         -5 	(obj:0)
$_160__3_y                                         -5 	(obj:0)
$_160__3_z                                         -6 	(obj:0)
$_45__3_x                                          -5 	(obj:0)
$_45__3_y                                           3 	(obj:0)
